solution status: optimal solution found
objective value:                     214861.284941358
d11(0,0)                                            1 	(obj:0)
d11(1,1)                                            1 	(obj:0)
d11(1,2)                                            1 	(obj:0)
d11(3,7)                                            1 	(obj:0)
d11(3,9)                                            1 	(obj:0)
d11(3,11)                                           1 	(obj:0)
d11(3,12)                                           1 	(obj:0)
d11(3,13)                                           1 	(obj:0)
d11(3,14)                                           1 	(obj:0)
d11(4,15)                                           1 	(obj:0)
d11(4,16)                                           1 	(obj:0)
d11(4,17)                                           1 	(obj:0)
d11(4,18)                                           1 	(obj:0)
d11(4,19)                                           1 	(obj:0)
d11(4,21)                                           1 	(obj:0)
d11(4,23)                                           1 	(obj:0)
d11(4,25)                                           1 	(obj:0)
d11(4,27)                                           1 	(obj:0)
d11(4,29)                                           1 	(obj:0)
d11(5,31)                                           1 	(obj:0)
d11(5,32)                                           1 	(obj:0)
d11(5,33)                                           1 	(obj:0)
d11(5,34)                                           1 	(obj:0)
d11(5,35)                                           1 	(obj:0)
d11(5,36)                                           1 	(obj:0)
d11(5,37)                                           1 	(obj:0)
d11(5,38)                                           1 	(obj:0)
d11(5,39)                                           1 	(obj:0)
d11(5,40)                                           1 	(obj:0)
d11(5,41)                                           1 	(obj:0)
d11(5,42)                                           1 	(obj:0)
d11(5,43)                                           1 	(obj:0)
d11(5,45)                                           1 	(obj:0)
d11(5,46)                                           1 	(obj:0)
d11(5,47)                                           1 	(obj:0)
d11(5,48)                                           1 	(obj:0)
d11(5,49)                                           1 	(obj:0)
d11(5,50)                                           1 	(obj:0)
d11(5,51)                                           1 	(obj:0)
d11(5,52)                                           1 	(obj:0)
d11(5,53)                                           1 	(obj:0)
d11(5,54)                                           1 	(obj:0)
d11(5,55)                                           1 	(obj:0)
d11(5,56)                                           1 	(obj:0)
d11(5,57)                                           1 	(obj:0)
d11(5,58)                                           1 	(obj:0)
d11(5,59)                                           1 	(obj:0)
d11(5,60)                                           1 	(obj:0)
d11(5,61)                                           1 	(obj:0)
d11(5,62)                                           1 	(obj:0)
d11(6,63)                           0.999999999999985 	(obj:0)
d11(6,65)                           0.999999999999985 	(obj:0)
d11(6,67)                           0.999999999999985 	(obj:0)
d11(6,69)                                           1 	(obj:0)
d11(6,71)                           0.999999999999985 	(obj:0)
d11(6,73)                           0.999999999999985 	(obj:0)
d11(6,75)                           0.999999999999985 	(obj:0)
d11(6,79)                           0.999999999999985 	(obj:0)
d11(6,81)                           0.999999999999985 	(obj:0)
d11(6,83)                                           1 	(obj:0)
d11(6,85)                           0.999999999999985 	(obj:0)
d11(6,87)                           0.999999999999985 	(obj:0)
d11(6,89)                           0.999999999999985 	(obj:0)
d11(6,91)                           0.999999999999985 	(obj:0)
d11(6,93)                           0.999999999999985 	(obj:0)
d11(6,95)                           0.999999999999985 	(obj:0)
d11(6,99)                           0.999999999999985 	(obj:0)
d11(6,101)                                          1 	(obj:0)
d11(6,103)                                          1 	(obj:0)
d11(6,105)                          0.999999999999985 	(obj:0)
d11(6,107)                          0.999999999999985 	(obj:0)
d11(6,109)                          0.999999999999985 	(obj:0)
d11(6,111)                          0.999999999999985 	(obj:0)
d11(6,113)                          0.999999999999985 	(obj:0)
d11(6,115)                          0.999999999999985 	(obj:0)
d11(6,117)                                          1 	(obj:0)
d11(6,119)                                          1 	(obj:0)
d11(6,121)                          0.999999999999985 	(obj:0)
d11(6,123)                          0.999999999999985 	(obj:0)
d11(6,125)                          0.999999999999985 	(obj:0)
d12(2,3)                                            1 	(obj:0)
d12(2,4)                                            1 	(obj:0)
d12(2,5)                                            1 	(obj:0)
d12(2,6)                                            1 	(obj:0)
d12(6,64)                                           1 	(obj:0)
d12(6,66)                                           1 	(obj:0)
d12(6,68)                                           1 	(obj:0)
d12(6,70)                                           1 	(obj:0)
d12(6,72)                                           1 	(obj:0)
d12(6,74)                                           1 	(obj:0)
d12(6,76)                                           1 	(obj:0)
d12(6,78)                                           1 	(obj:0)
d12(6,80)                                           1 	(obj:0)
d12(6,82)                                           1 	(obj:0)
d12(6,84)                                           1 	(obj:0)
d12(6,86)                                           1 	(obj:0)
d12(6,88)                                           1 	(obj:0)
d12(6,90)                                           1 	(obj:0)
d12(6,92)                                           1 	(obj:0)
d12(6,94)                                           1 	(obj:0)
d12(6,96)                                           1 	(obj:0)
d12(6,98)                                           1 	(obj:0)
d12(6,100)                                          1 	(obj:0)
d12(6,102)                                          1 	(obj:0)
d12(6,104)                                          1 	(obj:0)
d12(6,106)                                          1 	(obj:0)
d12(6,108)                                          1 	(obj:0)
d12(6,110)                                          1 	(obj:0)
d12(6,112)                                          1 	(obj:0)
d12(6,114)                                          1 	(obj:0)
d12(6,116)                                          1 	(obj:0)
d12(6,118)                                          1 	(obj:0)
d12(6,120)                                          1 	(obj:0)
d12(6,122)                                          1 	(obj:0)
d12(6,124)                                          1 	(obj:0)
d12(6,126)                                          1 	(obj:0)
d21(4,15)                                           1 	(obj:0)
d21(4,16)                                           1 	(obj:0)
d21(4,17)                                           1 	(obj:0)
d21(4,19)                                           1 	(obj:0)
d21(4,23)                                           1 	(obj:0)
d21(5,31)                                           1 	(obj:0)
d21(5,32)                                           1 	(obj:0)
d21(5,33)                                           1 	(obj:0)
d21(5,34)                                           1 	(obj:0)
d21(5,35)                                           1 	(obj:0)
d21(5,36)                                           1 	(obj:0)
d21(5,37)                                           1 	(obj:0)
d21(5,39)                                           1 	(obj:0)
d21(5,40)                                           1 	(obj:0)
d21(5,41)                                           1 	(obj:0)
d21(5,43)                                           1 	(obj:0)
d21(5,47)                                           1 	(obj:0)
d21(5,48)                                           1 	(obj:0)
d21(5,49)                                           1 	(obj:0)
d21(5,51)                                           1 	(obj:0)
d21(5,55)                                           1 	(obj:0)
d21(6,63)                                           1 	(obj:0)
d21(6,64)                                           1 	(obj:0)
d21(6,65)                                           1 	(obj:0)
d21(6,66)                                           1 	(obj:0)
d21(6,67)                                           1 	(obj:0)
d21(6,68)                                           1 	(obj:0)
d21(6,69)                                           1 	(obj:0)
d21(6,70)                                           1 	(obj:0)
d21(6,71)                                           1 	(obj:0)
d21(6,72)                                           1 	(obj:0)
d21(6,73)                                           1 	(obj:0)
d21(6,74)                                           1 	(obj:0)
d21(6,75)                                           1 	(obj:0)
d21(6,76)                                           1 	(obj:0)
d21(6,79)                                           1 	(obj:0)
d21(6,80)                                           1 	(obj:0)
d21(6,81)                                           1 	(obj:0)
d21(6,82)                                           1 	(obj:0)
d21(6,83)                                           1 	(obj:0)
d21(6,84)                                           1 	(obj:0)
d21(6,85)                                           1 	(obj:0)
d21(6,87)                                           1 	(obj:0)
d21(6,88)                                           1 	(obj:0)
d21(6,89)                                           1 	(obj:0)
d21(6,91)                                           1 	(obj:0)
d21(6,95)                                           1 	(obj:0)
d21(6,96)                                           1 	(obj:0)
d21(6,97)                                           1 	(obj:0)
d21(6,98)                                           1 	(obj:0)
d21(6,99)                                           1 	(obj:0)
d21(6,100)                                          1 	(obj:0)
d21(6,103)                                          1 	(obj:0)
d21(6,104)                                          1 	(obj:0)
d21(6,111)                                          1 	(obj:0)
d21(6,112)                                          1 	(obj:0)
d21(6,113)                                          1 	(obj:0)
d21(6,115)                                          1 	(obj:0)
d21(6,119)                                          1 	(obj:0)
y2(6,100)                            1385.48851144895 	(obj:0)
y2(6,102)                            1385.48851144895 	(obj:0)
y2(6,104)                            1385.48851144901 	(obj:0)
y2(6,106)                            1385.48851144901 	(obj:0)
y2(6,108)                            1385.48851144901 	(obj:0)
y2(6,110)                            1385.48851144901 	(obj:0)
y2(6,112)                            1385.48851144895 	(obj:0)
y2(6,114)                            1385.48851144895 	(obj:0)
y2(6,116)                            1385.48851144895 	(obj:0)
y2(6,118)                            1385.48851144901 	(obj:0)
y2(6,120)                            1385.48851144901 	(obj:0)
y2(6,122)                            1385.48851144901 	(obj:0)
y2(6,124)                            1385.48851144901 	(obj:0)
y2(6,126)                            1385.48851144901 	(obj:0)
STE(1,1)                             7035.75010111118 	(obj:0)
STE(0,0)                                         9450 	(obj:0)
STE(1,2)                                         8694 	(obj:0)
STE(2,3)                                    6804.0002 	(obj:0)
STE(2,4)                             8221.80386354994 	(obj:0)
STE(2,5)                             8462.25009888882 	(obj:0)
STE(2,6)                             9880.05376243876 	(obj:0)
STE(3,7)                             4389.75030111115 	(obj:0)
STE(3,8)                                    6048.0002 	(obj:0)
STE(3,9)                             5807.55396466109 	(obj:0)
STE(3,10)                            7465.80386354994 	(obj:0)
STE(3,11)                            6048.00020009008 	(obj:0)
STE(3,12)                            7706.25009888888 	(obj:0)
STE(3,13)                            7465.80386354991 	(obj:0)
STE(3,14)                            9124.05376243869 	(obj:0)
STE(4,15)                            1975.50040222234 	(obj:0)
STE(4,16)                            3633.75030111115 	(obj:0)
STE(4,17)                            3633.75030111118 	(obj:0)
STE(4,18)                                   5292.0002 	(obj:0)
STE(4,19)                            3393.30406577228 	(obj:0)
STE(4,20)                            5051.55396466109 	(obj:0)
STE(4,21)                            5051.55396466112 	(obj:0)
STE(4,22)                            6709.80386354994 	(obj:0)
STE(4,23)                            3633.75030120126 	(obj:0)
STE(4,24)                            5292.00020009008 	(obj:0)
STE(4,25)                            5292.00020000006 	(obj:0)
STE(4,26)                            6950.25009888888 	(obj:0)
STE(4,27)                            5051.55396466109 	(obj:0)
STE(4,28)                            6709.80386354991 	(obj:0)
STE(4,29)                            6709.80386354988 	(obj:0)
STE(4,30)                            8368.05376243869 	(obj:0)
STE(5,31)                           -438.749496666509 	(obj:0)
STE(5,32)                            1219.50040222234 	(obj:0)
STE(5,33)                            1219.50040222231 	(obj:0)
STE(5,34)                            2877.75030111115 	(obj:0)
STE(5,35)                            1219.50040222234 	(obj:0)
STE(5,36)                            2877.75030111118 	(obj:0)
STE(5,37)                            2877.75030111115 	(obj:0)
STE(5,38)                                   4536.0002 	(obj:0)
STE(5,39)                            979.054166883431 	(obj:0)
STE(5,40)                            2637.30406577228 	(obj:0)
STE(5,41)                            2637.30406577225 	(obj:0)
STE(5,42)                            4295.55396466109 	(obj:0)
STE(5,43)                            2637.30406577228 	(obj:0)
STE(5,44)                            4295.55396466112 	(obj:0)
STE(5,45)                            4295.55396466109 	(obj:0)
STE(5,46)                            5953.80386354994 	(obj:0)
STE(5,47)                            1219.50040231241 	(obj:0)
STE(5,48)                            2877.75030120132 	(obj:0)
STE(5,49)                            2877.75030120123 	(obj:0)
STE(5,50)                            4536.00020009008 	(obj:0)
STE(5,51)                            2877.75030111122 	(obj:0)
STE(5,52)                            4536.00020000006 	(obj:0)
STE(5,53)                            4536.00020000004 	(obj:0)
STE(5,54)                            6194.25009888888 	(obj:0)
STE(5,55)                            2637.30406577225 	(obj:0)
STE(5,56)                            4295.55396466109 	(obj:0)
STE(5,57)                            4295.55396466106 	(obj:0)
STE(5,58)                            5953.80386354988 	(obj:0)
STE(5,59)                            4295.55396466103 	(obj:0)
STE(5,60)                            5953.80386354988 	(obj:0)
STE(5,61)                            5953.80386354985 	(obj:0)
STE(5,62)                            7612.05376243869 	(obj:0)
STE(6,63)                           -1194.74949666651 	(obj:0)
STE(6,64)                            121.464589209997 	(obj:0)
STE(6,65)                            463.500402222337 	(obj:0)
STE(6,66)                            1779.71448809884 	(obj:0)
STE(6,67)                            463.500402222309 	(obj:0)
STE(6,68)                            1779.71448809881 	(obj:0)
STE(6,69)                            2121.75030111115 	(obj:0)
STE(6,70)                            3437.96438698766 	(obj:0)
STE(6,71)                            463.500402222337 	(obj:0)
STE(6,72)                            1779.71448809884 	(obj:0)
STE(6,73)                            2121.75030111118 	(obj:0)
STE(6,74)                            3437.96438698774 	(obj:0)
STE(6,75)                            2121.75030111115 	(obj:0)
STE(6,76)                            3437.96438698766 	(obj:0)
STE(6,77)                                   3780.0002 	(obj:0)
STE(6,78)                            5096.21428587651 	(obj:0)
STE(6,79)                            223.054166883431 	(obj:0)
STE(6,80)                            1539.26825275994 	(obj:0)
STE(6,81)                            1881.30406577228 	(obj:0)
STE(6,82)                            3197.51815164878 	(obj:0)
STE(6,83)                            1881.30406577225 	(obj:0)
STE(6,84)                            3197.51815164875 	(obj:0)
STE(6,85)                            3539.55396466109 	(obj:0)
STE(6,86)                             4855.7680505376 	(obj:0)
STE(6,87)                            1881.30406577228 	(obj:0)
STE(6,88)                            3197.51815164878 	(obj:0)
STE(6,89)                            3539.55396466112 	(obj:0)
STE(6,90)                            4855.76805053763 	(obj:0)
STE(6,91)                            3539.55396466109 	(obj:0)
STE(6,92)                             4855.7680505376 	(obj:0)
STE(6,93)                            5197.80386354994 	(obj:0)
STE(6,94)                            6514.01794942645 	(obj:0)
STE(6,95)                            463.500402312413 	(obj:0)
STE(6,96)                            1779.71448818892 	(obj:0)
STE(6,97)                            2121.75030120132 	(obj:0)
STE(6,98)                            3437.96438707783 	(obj:0)
STE(6,99)                            2121.75030120123 	(obj:0)
STE(6,100)                           3437.96438707774 	(obj:0)
STE(6,101)                           3780.00020009008 	(obj:0)
STE(6,102)                           5096.21428596658 	(obj:0)
STE(6,103)                           2121.75030111122 	(obj:0)
STE(6,104)                           3437.96438698778 	(obj:0)
STE(6,105)                           3780.00020000006 	(obj:0)
STE(6,106)                           5096.21428587662 	(obj:0)
STE(6,107)                           3780.00020000004 	(obj:0)
STE(6,108)                           5096.21428587659 	(obj:0)
STE(6,109)                           5438.25009888888 	(obj:0)
STE(6,110)                           6754.46418476544 	(obj:0)
STE(6,111)                           1881.30406577225 	(obj:0)
STE(6,112)                           3197.51815164875 	(obj:0)
STE(6,113)                           3539.55396466109 	(obj:0)
STE(6,114)                            4855.7680505376 	(obj:0)
STE(6,115)                           3539.55396466106 	(obj:0)
STE(6,116)                           4855.76805053757 	(obj:0)
STE(6,117)                           5197.80386354988 	(obj:0)
STE(6,118)                           6514.01794942644 	(obj:0)
STE(6,119)                           3539.55396466103 	(obj:0)
STE(6,120)                           4855.76805053759 	(obj:0)
STE(6,121)                           5197.80386354988 	(obj:0)
STE(6,122)                           6514.01794942644 	(obj:0)
STE(6,123)                           5197.80386354985 	(obj:0)
STE(6,124)                           6514.01794942641 	(obj:0)
STE(6,125)                           6856.05376243869 	(obj:0)
STE(6,126)                           8172.26784831525 	(obj:0)
BG(5)                                723.522421037851 	(obj:10)
BG(6)                                2673.40993875056 	(obj:10)
AVE(1)                               3259.55177567504 	(obj:0)
WB(2)                                3259.55588804169 	(obj:0)
AVE(2)                               3259.55588804169 	(obj:0)
AVE(3)                               3579.36165209166 	(obj:0)
AVE(4)                               3579.36576445831 	(obj:0)
AVE(5)                               3472.77007794174 	(obj:0)
WB(6)                                3046.36189504185 	(obj:0)
AVE(6)                                3046.3618950668 	(obj:0)
WG(1)                                3259.55177567504 	(obj:10)
WG(3)                                3579.36165209166 	(obj:10)
WG(4)                                3579.36576445831 	(obj:10)
WG(5)                                3472.77007794174 	(obj:10)
WG(6)                            2.4946140391486e-008 	(obj:10)
BG(1)                                936.740723304526 	(obj:10)
BG(2)                                 2027.5485594543 	(obj:10)
BG(3)                                616.930846887932 	(obj:10)
BG(4)                                616.926734521256 	(obj:10)
y1(1,1)                              1492.42490899994 	(obj:0)
y1(3,7)                              1492.42490899996 	(obj:0)
y1(3,9)                              1492.42490899996 	(obj:0)
y1(3,11)                             1492.42490891887 	(obj:0)
y1(3,13)                             1492.42490899996 	(obj:0)
y1(4,15)                             1492.42490899994 	(obj:0)
y1(4,17)                             1492.42490899994 	(obj:0)
y1(4,19)                             1492.42490899994 	(obj:0)
y1(4,21)                             1492.42490899994 	(obj:0)
y1(4,23)                             1492.42490899994 	(obj:0)
y1(4,25)                             1492.42490899994 	(obj:0)
y1(4,27)                             1492.42490899994 	(obj:0)
y1(4,29)                             1492.42490899994 	(obj:0)
y1(5,31)                             1492.42490899996 	(obj:0)
y1(5,33)                             1492.42490899996 	(obj:0)
y1(5,35)                             1492.42490899996 	(obj:0)
y1(5,37)                             1492.42490899996 	(obj:0)
y1(5,39)                             1492.42490899996 	(obj:0)
y1(5,41)                             1492.42490899996 	(obj:0)
y1(5,43)                             1492.42490899996 	(obj:0)
y1(5,45)                             1492.42490899996 	(obj:0)
y1(5,47)                             1492.42490899996 	(obj:0)
y1(5,49)                             1492.42490899996 	(obj:0)
y1(5,51)                             1492.42490899996 	(obj:0)
y1(5,53)                             1492.42490899996 	(obj:0)
y1(5,55)                             1492.42490899996 	(obj:0)
y1(5,57)                             1492.42490899996 	(obj:0)
y1(5,59)                             1492.42490899996 	(obj:0)
y1(5,61)                             1492.42490899996 	(obj:0)
y2(2,3)                               551.84220935665 	(obj:0)
y2(2,4)                              2044.26711835659 	(obj:0)
y2(2,5)                              551.842209356651 	(obj:0)
y2(2,6)                              2044.26711835659 	(obj:0)
y2(6,64)                             1385.48851144895 	(obj:0)
y2(6,66)                             1385.48851144895 	(obj:0)
y2(6,68)                             1385.48851144895 	(obj:0)
y2(6,70)                             1385.48851144895 	(obj:0)
y2(6,72)                             1385.48851144895 	(obj:0)
y2(6,74)                             1385.48851144901 	(obj:0)
y2(6,76)                             1385.48851144895 	(obj:0)
y2(6,78)                             1385.48851144895 	(obj:0)
y2(6,80)                             1385.48851144895 	(obj:0)
y2(6,82)                             1385.48851144895 	(obj:0)
y2(6,84)                             1385.48851144895 	(obj:0)
y2(6,86)                             1385.48851144895 	(obj:0)
y2(6,88)                             1385.48851144895 	(obj:0)
y2(6,90)                             1385.48851144895 	(obj:0)
y2(6,92)                             1385.48851144895 	(obj:0)
y2(6,94)                             1385.48851144895 	(obj:0)
y2(6,96)                             1385.48851144895 	(obj:0)
y2(6,98)                             1385.48851144895 	(obj:0)
